tsp_instances/TSP50/instance93.tsp
NODE_COORD_SECTION
0 56 43
1 48 34
2 178 124
3 187 189
4 197 91
5 125 72
6 181 27
7 149 142
8 155 56
9 97 21
10 11 86
11 123 80
12 189 197
13 6 43
14 194 141
15 18 121
16 51 179
17 96 167
18 164 103
19 187 81
20 197 157
21 95 88
22 152 7
23 181 26
24 15 72
25 188 7
26 21 179
27 70 102
28 60 164
29 125 61
30 45 54
31 192 167
32 175 77
33 48 37
34 84 83
35 167 183
36 11 58
37 0 17
38 90 94
39 11 144
40 57 151
41 6 88
42 188 184
43 88 14
44 150 49
45 163 29
46 97 39
47 97 47
48 29 159
49 70 12
