tsp_instances/TSP50/instance93.opt.tour
TOUR_SECTION
1
31
38
14
37
25
11
42
16
40
49
27
17
29
41
18
8
36
13
4
43
32
21
15
3
19
5
20
33
7
24
26
23
46
45
9
30
6
12
22
39
28
35
48
47
10
44
50
2
34
-1